BAYES
56
4 4 4 4 4 4 4 4 4 3 3 3 3 3 3 4 3 3 3 3 3 3 4 3 3 6 11 2 4 3 3 6 4 3 3 3 5 4 4 4 11 3 3 3 7 4 3 3 4 3 7 5 4 4 2 6
56
1 0
1 1
1 2
4 0 1 2 3
2 3 4
1 5
1 6
3 5 6 7
3 4 7 8
1 9
1 10
3 9 10 11
4 8 4 11 12
1 13
3 12 13 14
1 15
3 14 15 16
1 17
4 16 15 17 18
3 14 15 19
5 18 19 4 12 20
2 20 21
1 22
3 22 20 23
2 14 24
1 25
2 25 26
2 26 27
1 28
3 27 28 29
3 29 21 30
2 26 31
1 32
1 33
4 31 32 33 34
3 34 23 35
2 26 36
1 37
1 38
3 37 38 39
2 26 40
5 39 35 30 40 41
3 36 41 42
3 24 42 43
2 26 44
2 26 45
2 26 46
2 26 47
2 26 48
2 26 49
2 26 50
2 26 51
2 26 52
2 26 53
2 26 54
2 26 55

4
0.25 0.25 0.25 0.25
4
0.15 0.15 0.5 0.2
4
0.15 0.15 0.5 0.2
256
1.0 0.0 0.0 0.0 0.9 0.1 0.0 0.0 0.7 0.2 0.1 0.0 0.2 0.5 0.2 0.1 0.9 0.1 0.0 0.0 0.7 0.3 0.0 0.0 0.15 0.7 0.15 0.0 0.1 0.35 0.45 0.1 0.7 0.2 0.1 0.0 0.15 0.7 0.15 0.0 0.2 0.6 0.2 0.0 0.1 0.2 0.6 0.1 0.2 0.5 0.2 0.1 0.1 0.35 0.45 0.1 0.1 0.2 0.6 0.1 0.1 0.1 0.2 0.6 0.9 0.1 0.0 0.0 0.7 0.3 0.0 0.0 0.15 0.7 0.15 0.0 0.1 0.35 0.45 0.1 0.7 0.3 0.0 0.0 0.0 1.0 0.0 0.0 0.0 0.7 0.3 0.0 0.0 0.2 0.7 0.1 0.15 0.7 0.15 0.0 0.0 0.7 0.3 0.0 0.0 0.3 0.7 0.0 0.0 0.15 0.5 0.35 0.1 0.35 0.45 0.1 0.0 0.2 0.7 0.1 0.0 0.15 0.5 0.35 0.0 0.1 0.2 0.7 0.7 0.2 0.1 0.0 0.15 0.7 0.15 0.0 0.2 0.6 0.2 0.0 0.1 0.2 0.6 0.1 0.15 0.7 0.15 0.0 0.0 0.7 0.3 0.0 0.0 0.3 0.7 0.0 0.0 0.15 0.5 0.35 0.2 0.6 0.2 0.0 0.0 0.3 0.7 0.0 0.0 0.0 1.0 0.0 0.0 0.0 0.7 0.3 0.1 0.2 0.6 0.1 0.0 0.15 0.5 0.35 0.0 0.0 0.7 0.3 0.0 0.0 0.3 0.7 0.2 0.5 0.2 0.1 0.1 0.35 0.45 0.1 0.1 0.2 0.6 0.1 0.1 0.1 0.2 0.6 0.1 0.35 0.45 0.1 0.0 0.2 0.7 0.1 0.0 0.15 0.5 0.35 0.0 0.1 0.2 0.7 0.1 0.2 0.6 0.1 0.0 0.15 0.5 0.35 0.0 0.0 0.7 0.3 0.0 0.0 0.3 0.7 0.1 0.1 0.2 0.6 0.0 0.1 0.2 0.7 0.0 0.0 0.3 0.7 0.0 0.0 0.0 1.0
16
1.0 0.0 0.0 0.0 0.0 1.0 0.0 0.0 0.0 0.0 1.0 0.0 0.0 0.0 0.0 1.0
4
0.15 0.2 0.4 0.25
4
0.15 0.2 0.4 0.25
64
0.9 0.1 0.0 0.0 0.55 0.4 0.05 0.0 0.25 0.3 0.35 0.1 0.25 0.25 0.25 0.25 0.6 0.35 0.05 0.0 0.15 0.6 0.2 0.05 0.1 0.35 0.5 0.05 0.25 0.25 0.25 0.25 0.3 0.5 0.2 0.0 0.05 0.4 0.45 0.1 0.0 0.15 0.7 0.15 0.25 0.25 0.25 0.25 0.25 0.35 0.25 0.15 0.1 0.3 0.3 0.3 0.0 0.1 0.4 0.5 0.25 0.25 0.25 0.25
64
0.99 0.01 0.0 0.0 0.8 0.2 0.0 0.0 0.7 0.29 0.01 0.0 0.2 0.74 0.06 0.0 0.7 0.29 0.01 0.0 0.35 0.55 0.1 0.0 0.2 0.6 0.2 0.0 0.05 0.4 0.45 0.1 0.2 0.55 0.24 0.01 0.01 0.39 0.55 0.05 0.01 0.09 0.8 0.1 0.0 0.05 0.5 0.45 0.0 0.25 0.55 0.2 0.0 0.02 0.43 0.55 0.0 0.0 0.3 0.7 0.0 0.0 0.01 0.99
3
0.1 0.5 0.4
3
0.15 0.45 0.4
27
0.95 0.04 0.01 0.45 0.52 0.03 0.1 0.4 0.5 0.85 0.13 0.02 0.1 0.8 0.1 0.02 0.28 0.7 0.8 0.1 0.1 0.05 0.45 0.5 0.0 0.02 0.98
144
1.0 0.0 0.0 0.92 0.08 0.0 0.88 0.12 0.0 0.85 0.14 0.01 0.95 0.05 0.0 0.9 0.09 0.01 0.85 0.15 0.0 0.6 0.39 0.01 0.93 0.07 0.0 0.8 0.2 0.0 0.8 0.18 0.02 0.78 0.2 0.02 0.74 0.25 0.01 0.65 0.34 0.01 0.5 0.48 0.02 0.42 0.55 0.03 0.85 0.15 0.0 0.7 0.29 0.01 0.4 0.5 0.1 0.55 0.43 0.02 0.4 0.55 0.05 0.25 0.6 0.15 0.15 0.75 0.1 0.01 0.9 0.09 0.2 0.78 0.02 0.01 0.89 0.1 0.03 0.85 0.12 0.01 0.74 0.25 0.0 0.5 0.5 0.0 0.4 0.6 0.01 0.74 0.25 0.05 0.65 0.3 0.25 0.35 0.4 0.15 0.4 0.45 0.1 0.4 0.5 0.1 0.25 0.65 0.05 0.45 0.5 0.01 0.3 0.69 0.0 0.2 0.8 0.0 0.15 0.85 0.01 0.29 0.7 0.0 0.1 0.9 0.0 0.05 0.95 0.0 0.04 0.96 0.0 0.1 0.9 0.0 0.02 0.98 0.0 0.01 0.99 0.0 0.0 1.0
3
0.333333 0.333333 0.333334
27
0.9 0.1 0.0 0.6 0.39 0.01 0.5 0.35 0.15 0.01 0.4 0.59 0.0 0.4 0.6 0.0 0.15 0.85 0.0 0.05 0.95 0.0 0.0 1.0 0.0 0.0 1.0
4
0.3 0.25 0.25 0.2
36
1.0 0.0 0.0 0.5 0.4 0.1 0.05 0.45 0.5 1.0 0.0 0.0 0.15 0.4 0.45 0.01 0.15 0.84 1.0 0.0 0.0 0.35 0.6 0.05 0.1 0.25 0.65 1.0 0.0 0.0 0.8 0.19 0.01 0.6 0.3 0.1
3
0.5 0.35 0.15
108
0.5 0.48 0.02 0.3 0.63 0.07 0.0 0.55 0.45 0.75 0.22 0.03 0.15 0.7 0.15 0.0 0.5 0.5 0.8 0.18 0.02 0.15 0.7 0.15 0.0 0.7 0.3 0.7 0.28 0.02 0.4 0.55 0.05 0.02 0.73 0.25 0.3 0.5 0.2 0.1 0.5 0.4 0.0 0.4 0.6 0.45 0.45 0.1 0.1 0.75 0.15 0.0 0.4 0.6 0.35 0.5 0.15 0.05 0.8 0.15 0.0 0.5 0.5 0.25 0.6 0.15 0.2 0.65 0.15 0.01 0.5 0.49 0.1 0.25 0.65 0.05 0.2 0.75 0.0 0.15 0.85 0.25 0.4 0.35 0.05 0.5 0.45 0.0 0.2 0.8 0.25 0.35 0.4 0.05 0.45 0.5 0.0 0.2 0.8 0.05 0.35 0.6 0.05 0.3 0.65 0.01 0.2 0.79
36
1.0 0.0 0.0 0.3 0.6 0.1 0.0 0.3 0.7 1.0 0.0 0.0 0.2 0.7 0.1 0.0 0.2 0.8 1.0 0.0 0.0 0.5 0.46 0.04 0.1 0.5 0.4 1.0 0.0 0.0 0.8 0.19 0.01 0.5 0.38 0.12
324
0.4 0.35 0.25 0.35 0.35 0.3 0.3 0.3 0.4 0.4 0.35 0.25 0.35 0.35 0.3 0.3 0.3 0.4 0.45 0.3 0.25 0.4 0.35 0.25 0.3 0.35 0.35 0.6 0.25 0.15 0.5 0.25 0.25 0.35 0.25 0.4 0.65 0.25 0.1 0.55 0.25 0.2 0.4 0.25 0.35 0.7 0.22 0.08 0.65 0.25 0.1 0.5 0.25 0.25 0.6 0.35 0.05 0.55 0.3 0.15 0.45 0.3 0.25 0.65 0.3 0.05 0.6 0.3 0.1 0.5 0.3 0.2 0.7 0.27 0.03 0.65 0.3 0.05 0.55 0.35 0.1 0.7 0.27 0.03 0.6 0.35 0.05 0.5 0.35 0.15 0.75 0.23 0.02 0.65 0.3 0.05 0.55 0.35 0.1 0.85 0.14 0.01 0.78 0.18 0.04 0.7 0.24 0.06 0.1 0.35 0.55 0.05 0.35 0.6 0.01 0.25 0.74 0.25 0.3 0.45 0.1 0.35 0.55 0.05 0.6 0.35 0.4 0.3 0.3 0.25 0.4 0.35 0.15 0.35 0.5 0.4 0.3 0.3 0.3 0.35 0.35 0.15 0.4 0.45 0.45 0.3 0.25 0.35 0.35 0.3 0.2 0.4 0.4 0.55 0.3 0.15 0.45 0.35 0.2 0.35 0.35 0.3 0.45 0.4 0.15 0.4 0.4 0.2 0.3 0.4 0.3 0.5 0.4 0.1 0.45 0.4 0.15 0.35 0.4 0.25 0.6 0.3 0.1 0.55 0.3 0.15 0.45 0.35 0.2 0.65 0.3 0.05 0.6 0.3 0.1 0.48 0.32 0.2 0.7 0.26 0.04 0.65 0.3 0.05 0.55 0.3 0.15 0.8 0.17 0.03 0.75 0.2 0.05 0.65 0.28 0.07 0.05 0.3 0.65 0.03 0.25 0.72 0.01 0.2 0.79 0.15 0.35 0.5 0.05 0.3 0.65 0.04 0.27 0.69 0.35 0.3 0.35 0.2 0.4 0.4 0.13 0.35 0.52 0.2 0.5 0.3 0.15 0.45 0.4 0.1 0.35 0.55 0.25 0.5 0.25 0.2 0.5 0.3 0.12 0.43 0.45 0.4 0.45 0.15 0.3 0.5 0.2 0.2 0.45 0.35 0.25 0.45 0.3 0.2 0.4 0.4 0.15 0.4 0.45 0.3 0.45 0.25 0.25 0.5 0.25 0.2 0.45 0.35 0.55 0.33 0.12 0.5 0.3 0.2 0.4 0.35 0.25 0.6 0.35 0.05 0.55 0.33 0.12 0.45 0.35 0.2 0.65 0.32 0.03 0.6 0.35 0.05 0.5 0.4 0.1 0.75 0.23 0.02 0.7 0.25 0.05 0.6 0.3 0.1
9
0.0 0.0 1.0 0.0 1.0 0.0 1.0 0.0 0.0
4
0.12 0.28 0.3 0.3
36
0.0 0.05 0.95 0.05 0.15 0.8 0.15 0.5 0.35 0.5 0.4 0.1 0.0 0.12 0.88 0.1 0.4 0.5 0.2 0.6 0.2 0.8 0.16 0.04 0.05 0.15 0.8 0.25 0.5 0.25 0.35 0.5 0.15 0.9 0.09 0.01
9
1.0 0.0 0.0 0.48 0.5 0.02 0.2 0.5 0.3
6
0.254098 0.131148 0.106557 0.213115 0.07377 0.221312
66
0.1 0.16 0.1 0.08 0.08 0.01 0.08 0.1 0.09 0.03 0.17 0.05 0.16 0.09 0.09 0.12 0.02 0.13 0.06 0.07 0.11 0.1 0.04 0.13 0.1 0.08 0.15 0.03 0.14 0.04 0.06 0.15 0.08 0.04 0.13 0.09 0.07 0.2 0.08 0.06 0.05 0.07 0.13 0.08 0.04 0.11 0.1 0.07 0.17 0.05 0.1 0.05 0.07 0.14 0.1 0.05 0.11 0.1 0.08 0.11 0.02 0.11 0.06 0.08 0.11 0.17
22
1.0 0.0 1.0 0.0 0.0 1.0 0.0 1.0 0.0 1.0 0.0 1.0 0.0 1.0 0.0 1.0 0.0 1.0 0.0 1.0 0.0 1.0
4
0.15 0.57 0.2 0.08
24
1.0 0.0 0.0 0.75 0.25 0.0 0.6 0.37 0.03 0.3 0.6 0.1 0.25 0.45 0.3 0.01 0.4 0.59 0.0 0.1 0.9 0.0 0.03 0.97
27
1.0 0.0 0.0 0.75 0.25 0.0 0.3 0.35 0.35 0.98 0.02 0.0 0.03 0.94 0.03 0.0 0.02 0.98 0.35 0.35 0.3 0.0 0.25 0.75 0.0 0.0 1.0
66
1.0 0.0 0.0 0.0 0.0 0.0 1.0 0.0 0.0 0.0 0.0 0.0 0.0 1.0 0.0 0.0 0.0 0.0 0.0 1.0 0.0 0.0 0.0 0.0 0.0 1.0 0.0 0.0 0.0 0.0 0.0 0.0 1.0 0.0 0.0 0.0 0.0 0.0 0.0 1.0 0.0 0.0 0.0 0.0 0.0 0.0 1.0 0.0 1.0 0.0 0.0 0.0 0.0 0.0 0.0 1.0 0.0 0.0 0.0 0.0 0.0 0.0 0.0 0.0 0.0 1.0
4
0.1 0.52 0.3 0.08
3
0.3 0.25 0.45
216
0.6 0.3 0.1 0.4 0.3 0.3 0.35 0.35 0.3 0.3 0.4 0.3 0.35 0.45 0.2 0.3 0.55 0.15 0.3 0.3 0.4 0.15 0.3 0.55 0.07 0.38 0.55 0.15 0.35 0.5 0.1 0.25 0.65 0.1 0.35 0.55 0.06 0.21 0.73 0.03 0.17 0.8 0.0 0.05 0.95 0.07 0.23 0.7 0.02 0.18 0.8 0.05 0.22 0.73 0.01 0.04 0.95 0.01 0.04 0.95 0.0 0.02 0.98 0.02 0.18 0.8 0.01 0.09 0.9 0.02 0.1 0.88 0.85 0.13 0.02 0.7 0.2 0.1 0.55 0.4 0.05 0.5 0.3 0.2 0.4 0.5 0.1 0.4 0.5 0.1 0.5 0.3 0.2 0.25 0.5 0.25 0.2 0.6 0.2 0.2 0.6 0.2 0.15 0.45 0.4 0.25 0.5 0.25 0.2 0.4 0.4 0.2 0.3 0.5 0.05 0.35 0.6 0.13 0.47 0.4 0.05 0.25 0.7 0.1 0.35 0.55 0.05 0.2 0.75 0.05 0.18 0.77 0.0 0.05 0.95 0.04 0.26 0.7 0.03 0.17 0.8 0.04 0.16 0.8 0.95 0.04 0.01 0.9 0.08 0.02 0.85 0.13 0.02 0.75 0.2 0.05 0.58 0.4 0.02 0.5 0.43 0.07 0.75 0.2 0.05 0.6 0.3 0.1 0.5 0.43 0.07 0.15 0.7 0.15 0.4 0.45 0.15 0.3 0.5 0.2 0.5 0.4 0.1 0.45 0.4 0.15 0.25 0.5 0.25 0.1 0.75 0.15 0.15 0.35 0.5 0.15 0.35 0.5 0.35 0.35 0.3 0.25 0.4 0.35 0.04 0.16 0.8 0.07 0.3 0.63 0.08 0.32 0.6 0.1 0.25 0.65
27
1.0 0.0 0.0 0.6 0.4 0.0 0.25 0.35 0.4 0.9 0.1 0.0 0.15 0.7 0.15 0.0 0.1 0.9 0.4 0.35 0.25 0.0 0.4 0.6 0.0 0.0 1.0
55
1.0 0.0 0.0 0.0 0.0 0.0 1.0 0.0 0.0 0.0 1.0 0.0 0.0 0.0 0.0 0.0 0.0 1.0 0.0 0.0 1.0 0.0 0.0 0.0 0.0 1.0 0.0 0.0 0.0 0.0 0.0 0.0 0.0 1.0 0.0 0.0 0.0 0.0 0.0 1.0 0.0 0.0 0.0 0.0 1.0 0.0 0.0 0.0 1.0 0.0 1.0 0.0 0.0 0.0 0.0
4
0.4 0.4 0.15 0.05
4
0.12 0.32 0.38 0.18
64
0.7 0.28 0.02 0.0 0.9 0.09 0.01 0.0 0.95 0.05 0.0 0.0 1.0 0.0 0.0 0.0 0.1 0.5 0.3 0.1 0.65 0.25 0.09 0.01 0.75 0.23 0.02 0.0 0.95 0.05 0.0 0.0 0.01 0.14 0.35 0.5 0.25 0.35 0.3 0.1 0.4 0.4 0.18 0.02 0.75 0.2 0.05 0.0 0.0 0.02 0.18 0.8 0.01 0.15 0.33 0.51 0.2 0.3 0.35 0.15 0.5 0.35 0.1 0.05
121
1.0 0.0 0.0 0.0 0.0 0.0 0.0 0.0 0.0 0.0 0.0 0.0 1.0 0.0 0.0 0.0 0.0 0.0 0.0 0.0 0.0 0.0 0.0 0.0 1.0 0.0 0.0 0.0 0.0 0.0 0.0 0.0 0.0 0.0 0.0 0.0 1.0 0.0 0.0 0.0 0.0 0.0 0.0 0.0 0.0 0.0 0.0 0.0 1.0 0.0 0.0 0.0 0.0 0.0 0.0 0.0 0.0 0.0 0.0 0.0 1.0 0.0 0.0 0.0 0.0 0.0 0.0 0.0 0.0 0.0 0.0 0.0 1.0 0.0 0.0 0.0 0.0 0.0 0.0 0.0 0.0 0.0 0.0 0.0 1.0 0.0 0.0 0.0 0.0 0.0 0.0 0.0 0.0 0.0 0.0 0.0 1.0 0.0 0.0 0.0 0.0 0.0 0.0 0.0 0.0 0.0 0.0 0.0 1.0 0.0 0.0 0.0 0.0 0.0 0.0 0.0 0.0 0.0 0.0 0.0 1.0
1188
0.75 0.2 0.05 0.7 0.25 0.05 0.5 0.4 0.1 0.4 0.45 0.15 0.5 0.3 0.2 0.3 0.4 0.3 0.2 0.45 0.35 0.16 0.47 0.37 0.35 0.2 0.45 0.3 0.25 0.45 0.25 0.28 0.47 0.18 0.3 0.52 0.75 0.2 0.05 0.65 0.25 0.1 0.45 0.35 0.2 0.35 0.4 0.25 0.35 0.3 0.35 0.28 0.37 0.35 0.23 0.4 0.37 0.18 0.45 0.37 0.25 0.15 0.6 0.22 0.17 0.61 0.19 0.18 0.63 0.15 0.2 0.65 0.75 0.2 0.05 0.6 0.3 0.1 0.35 0.4 0.25 0.2 0.45 0.35 0.5 0.2 0.3 0.4 0.28 0.32 0.3 0.34 0.36 0.23 0.4 0.37 0.4 0.08 0.52 0.27 0.1 0.63 0.15 0.16 0.69 0.1 0.2 0.7 0.75 0.2 0.05 0.6 0.33 0.07 0.45 0.42 0.13 0.35 0.45 0.2 0.6 0.3 0.1 0.55 0.34 0.11 0.4 0.4 0.2 0.3 0.45 0.25 0.45 0.35 0.2 0.4 0.36 0.24 0.3 0.38 0.32 0.2 0.4 0.4 0.65 0.3 0.05 0.58 0.32 0.1 0.45 0.35 0.2 0.35 0.4 0.25 0.55 0.3 0.15 0.48 0.35 0.17 0.38 0.35 0.27 0.3 0.35 0.35 0.45 0.35 0.2 0.35 0.37 0.28 0.25 0.4 0.35 0.18 0.4 0.42 0.75 0.2 0.05 0.65 0.28 0.07 0.45 0.4 0.15 0.3 0.45 0.25 0.6 0.25 0.15 0.5 0.25 0.25 0.35 0.35 0.3 0.25 0.4 0.35 0.45 0.25 0.3 0.35 0.3 0.35 0.25 0.3 0.45 0.2 0.3 0.5 0.9 0.08 0.02 0.82 0.13 0.05 0.75 0.18 0.07 0.6 0.27 0.13 0.8 0.14 0.06 0.7 0.2 0.1 0.7 0.2 0.1 0.45 0.32 0.23 0.8 0.1 0.1 0.65 0.2 0.15 0.45 0.3 0.25 0.3 0.3 0.4 0.9 0.08 0.02 0.8 0.15 0.05 0.7 0.2 0.1 0.55 0.3 0.15 0.82 0.13 0.05 0.7 0.2 0.1 0.58 0.25 0.17 0.45 0.3 0.25 0.65 0.2 0.15 0.45 0.3 0.25 0.35 0.3 0.35 0.25 0.35 0.4 0.95 0.04 0.01 0.9 0.08 0.02 0.75 0.19 0.06 0.55 0.3 0.15 0.85 0.1 0.05 0.72 0.18 0.1 0.55 0.25 0.2 0.4 0.3 0.3 0.75 0.1 0.15 0.55 0.22 0.23 0.4 0.3 0.3 0.2 0.4 0.4 0.9 0.06 0.04 0.85 0.1 0.05 0.75 0.15 0.1 0.6 0.22 0.18 0.85 0.09 0.06 0.75 0.15 0.1 0.65 0.22 0.13 0.52 0.26 0.22 0.72 0.14 0.14 0.6 0.2 0.2 0.5 0.25 0.25 0.4 0.3 0.3 0.91 0.05 0.04 0.85 0.1 0.05 0.72 0.17 0.11 0.55 0.27 0.18 0.82 0.1 0.08 0.7 0.17 0.13 0.55 0.25 0.2 0.45 0.3 0.25 0.55 0.2 0.25 0.45 0.25 0.3 0.35 0.3 0.35 0.25 0.35 0.4 0.93 0.04 0.03 0.85 0.1 0.05 0.7 0.2 0.1 0.5 0.3 0.2 0.85 0.07 0.08 0.65 0.2 0.15 0.5 0.27 0.23 0.4 0.3 0.3 0.65 0.15 0.2 0.45 0.25 0.3 0.3 0.3 0.4 0.23 0.3 0.47 0.88 0.1 0.02 0.82 0.15 0.03 0.72 0.22 0.06 0.55 0.32 0.13 0.85 0.1 0.05 0.62 0.28 0.1 0.5 0.34 0.16 0.35 0.45 0.2 0.78 0.15 0.07 0.6 0.28 0.12 0.4 0.35 0.25 0.25 0.48 0.27 0.85 0.13 0.02 0.8 0.16 0.04 0.7 0.22 0.08 0.5 0.35 0.15 0.75 0.18 0.07 0.6 0.29 0.11 0.53 0.32 0.15 0.35 0.43 0.22 0.55 0.25 0.2 0.48 0.29 0.23 0.35 0.35 0.3 0.25 0.42 0.33 0.92 0.06 0.02 0.82 0.13 0.05 0.6 0.3 0.1 0.45 0.38 0.17 0.75 0.15 0.1 0.55 0.3 0.15 0.4 0.38 0.22 0.3 0.45 0.25 0.52 0.25 0.23 0.42 0.3 0.28 0.25 0.4 0.35 0.15 0.45 0.4 0.92 0.08 0.0 0.85 0.14 0.01 0.78 0.21 0.01 0.69 0.29 0.02 0.88 0.11 0.01 0.85 0.14 0.01 0.74 0.24 0.02 0.65 0.32 0.03 0.86 0.12 0.02 0.83 0.14 0.03 0.72 0.24 0.04 0.63 0.32 0.05 0.9 0.1 0.0 0.83 0.16 0.01 0.75 0.24 0.01 0.65 0.33 0.02 0.88 0.11 0.01 0.82 0.16 0.02 0.73 0.25 0.02 0.62 0.35 0.03 0.81 0.17 0.02 0.72 0.25 0.03 0.65 0.3 0.05 0.58 0.36 0.06 0.87 0.13 0.0 0.8 0.19 0.01 0.72 0.27 0.01 0.6 0.38 0.02 0.85 0.14 0.01 0.78 0.2 0.02 0.7 0.28 0.02 0.57 0.4 0.03 0.82 0.16 0.02 0.74 0.22 0.04 0.6 0.34 0.06 0.5 0.42 0.08 0.85 0.13 0.02 0.8 0.17 0.03 0.66 0.27 0.07 0.54 0.36 0.1 0.8 0.17 0.03 0.75 0.2 0.05 0.6 0.3 0.1 0.48 0.39 0.13 0.65 0.25 0.1 0.45 0.4 0.15 0.25 0.57 0.18 0.15 0.63 0.22 0.84 0.12 0.04 0.77 0.17 0.06 0.62 0.3 0.08 0.38 0.5 0.12 0.75 0.2 0.05 0.63 0.3 0.07 0.35 0.53 0.12 0.2 0.65 0.15 0.6 0.28 0.12 0.43 0.4 0.17 0.22 0.58 0.2 0.13 0.62 0.25 0.9 0.06 0.04 0.8 0.13 0.07 0.6 0.3 0.1 0.28 0.57 0.15 0.75 0.2 0.05 0.55 0.35 0.1 0.35 0.5 0.15 0.15 0.65 0.2 0.65 0.27 0.08 0.45 0.4 0.15 0.18 0.62 0.2 0.1 0.65 0.25 1.0 0.0 0.0 0.97 0.02 0.01 0.88 0.1 0.02 0.75 0.2 0.05 0.92 0.06 0.02 0.82 0.14 0.04 0.67 0.24 0.09 0.58 0.3 0.12 0.85 0.1 0.05 0.7 0.18 0.12 0.57 0.28 0.15 0.4 0.38 0.22 0.99 0.01 0.0 0.93 0.06 0.01 0.85 0.12 0.03 0.7 0.24 0.06 0.9 0.07 0.03 0.8 0.15 0.05 0.65 0.24 0.11 0.52 0.33 0.15 0.8 0.13 0.07 0.68 0.2 0.12 0.45 0.35 0.2 0.3 0.45 0.25 0.98 0.02 0.0 0.91 0.08 0.01 0.8 0.16 0.04 0.65 0.28 0.07 0.94 0.05 0.01 0.85 0.12 0.03 0.6 0.25 0.15 0.5 0.33 0.17 0.85 0.09 0.06 0.77 0.13 0.1 0.47 0.3 0.23 0.28 0.4 0.32 0.9 0.08 0.02 0.88 0.1 0.02 0.7 0.22 0.08 0.55 0.3 0.15 0.8 0.12 0.08 0.6 0.25 0.15 0.35 0.4 0.25 0.25 0.45 0.3 0.65 0.2 0.15 0.55 0.25 0.2 0.25 0.35 0.4 0.2 0.37 0.43 0.88 0.1 0.02 0.85 0.12 0.03 0.75 0.15 0.1 0.65 0.2 0.15 0.7 0.2 0.1 0.5 0.3 0.2 0.3 0.4 0.3 0.23 0.42 0.35 0.6 0.2 0.2 0.35 0.3 0.35 0.25 0.34 0.41 0.22 0.35 0.43 0.92 0.06 0.02 0.85 0.12 0.03 0.75 0.17 0.08 0.63 0.25 0.12 0.65 0.22 0.13 0.45 0.3 0.25 0.35 0.35 0.3 0.25 0.36 0.39 0.5 0.2 0.3 0.3 0.25 0.45 0.25 0.3 0.45 0.2 0.32 0.48 0.9 0.08 0.02 0.86 0.1 0.04 0.78 0.16 0.06 0.7 0.22 0.08 0.75 0.22 0.03 0.68 0.22 0.1 0.6 0.25 0.15 0.5 0.28 0.22 0.72 0.2 0.08 0.6 0.25 0.15 0.48 0.26 0.26 0.3 0.35 0.35 0.92 0.06 0.02 0.85 0.1 0.05 0.76 0.17 0.07 0.67 0.23 0.1 0.8 0.15 0.05 0.7 0.2 0.1 0.6 0.24 0.16 0.47 0.3 0.23 0.75 0.15 0.1 0.6 0.2 0.2 0.48 0.26 0.26 0.35 0.32 0.33 0.95 0.04 0.01 0.9 0.08 0.02 0.75 0.2 0.05 0.62 0.28 0.1 0.83 0.1 0.07 0.73 0.15 0.12 0.62 0.22 0.16 0.5 0.28 0.22 0.77 0.1 0.13 0.68 0.15 0.17 0.5 0.22 0.28 0.3 0.28 0.42 0.95 0.04 0.01 0.88 0.1 0.02 0.8 0.16 0.04 0.7 0.25 0.05 0.9 0.08 0.02 0.82 0.15 0.03 0.75 0.2 0.05 0.65 0.27 0.08 0.85 0.1 0.05 0.72 0.2 0.08 0.6 0.26 0.14 0.5 0.32 0.18 0.96 0.03 0.01 0.9 0.08 0.02 0.8 0.16 0.04 0.7 0.25 0.05 0.9 0.08 0.02 0.8 0.16 0.04 0.68 0.24 0.08 0.55 0.3 0.15 0.88 0.08 0.04 0.74 0.16 0.1 0.58 0.25 0.17 0.5 0.3 0.2 0.97 0.02 0.01 0.93 0.06 0.01 0.88 0.1 0.02 0.8 0.17 0.03 0.93 0.06 0.01 0.85 0.12 0.03 0.7 0.22 0.08 0.55 0.3 0.15 0.9 0.07 0.03 0.75 0.15 0.1 0.5 0.27 0.23 0.38 0.32 0.3
45
0.94 0.05 0.01 0.98 0.02 0.0 0.92 0.06 0.02 0.92 0.06 0.02 0.99 0.01 0.0 0.06 0.89 0.05 0.04 0.94 0.02 0.01 0.89 0.1 0.03 0.92 0.05 0.09 0.9 0.01 0.01 0.05 0.94 0.0 0.03 0.97 0.0 0.01 0.99 0.01 0.04 0.95 0.03 0.12 0.85
27
1.0 0.0 0.0 0.0 1.0 0.0 0.0 0.0 1.0 0.0 1.0 0.0 0.0 1.0 0.0 0.0 0.0 1.0 0.0 0.0 1.0 0.0 0.0 1.0 0.0 0.0 1.0
77
0.04 0.05 0.15 0.05 0.19 0.3 0.22 0.05 0.07 0.15 0.1 0.3 0.27 0.06 0.4 0.25 0.0 0.15 0.05 0.02 0.13 0.13 0.22 0.18 0.07 0.34 0.03 0.03 0.15 0.2 0.2 0.18 0.11 0.11 0.05 0.0 0.0 0.0 0.0 0.0 0.98 0.02 0.5 0.27 0.15 0.02 0.02 0.0 0.04 0.0 0.02 0.1 0.05 0.5 0.2 0.13 0.0 0.02 0.7 0.0 0.2 0.04 0.04 0.1 0.45 0.1 0.05 0.26 0.02 0.02 0.1 0.1 0.1 0.2 0.05 0.1 0.35
44
0.04 0.25 0.35 0.36 0.07 0.31 0.31 0.31 0.35 0.47 0.14 0.04 0.4 0.4 0.13 0.07 0.45 0.35 0.15 0.05 0.01 0.35 0.45 0.19 0.78 0.19 0.03 0.0 0.0 0.02 0.33 0.65 0.22 0.4 0.3 0.08 0.13 0.4 0.35 0.12 0.09 0.4 0.33 0.18
33
0.33 0.5 0.17 0.4 0.4 0.2 0.05 0.45 0.5 0.1 0.5 0.4 0.05 0.65 0.3 1.0 0.0 0.0 0.0 0.07 0.93 0.4 0.55 0.05 0.2 0.45 0.35 0.05 0.55 0.4 0.2 0.4 0.4
33
0.25 0.55 0.2 0.25 0.5 0.25 0.4 0.38 0.22 0.43 0.37 0.2 0.02 0.38 0.6 0.0 0.1 0.9 0.84 0.16 0.0 0.25 0.31 0.44 0.41 0.29 0.3 0.23 0.42 0.35 0.16 0.28 0.56
44
0.25 0.55 0.2 0.0 0.05 0.1 0.1 0.75 0.1 0.3 0.3 0.3 0.18 0.38 0.34 0.1 0.02 0.02 0.26 0.7 0.05 0.07 0.05 0.83 0.1 0.25 0.15 0.5 0.0 0.6 0.1 0.3 0.2 0.1 0.2 0.5 0.04 0.0 0.04 0.92 0.5 0.35 0.09 0.06
33
0.05 0.5 0.45 0.1 0.5 0.4 0.4 0.15 0.45 0.2 0.45 0.35 0.8 0.05 0.15 0.0 0.0 1.0 0.6 0.0 0.4 0.0 0.7 0.3 0.1 0.7 0.2 0.4 0.4 0.2 0.15 0.45 0.4
77
0.65 0.05 0.1 0.08 0.04 0.07 0.01 0.65 0.05 0.1 0.1 0.02 0.07 0.01 0.0 0.65 0.2 0.02 0.06 0.05 0.02 0.12 0.02 0.02 0.02 0.45 0.27 0.1 0.06 0.14 0.04 0.04 0.25 0.4 0.07 0.1 0.1 0.1 0.02 0.0 0.56 0.12 0.02 0.05 0.05 0.0 0.35 0.33 0.2 0.01 0.1 0.15 0.4 0.0 0.23 0.11 0.02 0.1 0.5 0.3 0.01 0.02 0.05 0.06 0.08 0.04 0.02 0.6 0.14 0.06 0.05 0.13 0.05 0.39 0.13 0.15 0.1
55
0.35 0.25 0.0 0.35 0.05 0.06 0.1 0.06 0.3 0.48 0.1 0.27 0.4 0.08 0.15 0.35 0.2 0.1 0.25 0.1 0.15 0.15 0.1 0.15 0.45 0.15 0.1 0.05 0.15 0.55 0.15 0.1 0.1 0.25 0.4 0.25 0.25 0.25 0.15 0.1 0.25 0.2 0.15 0.2 0.2 0.01 0.05 0.01 0.05 0.88 0.2 0.2 0.35 0.15 0.1
44
0.13 0.15 0.1 0.62 0.15 0.15 0.25 0.45 0.12 0.1 0.35 0.43 0.1 0.15 0.4 0.35 0.04 0.04 0.82 0.1 0.05 0.12 0.75 0.08 0.03 0.03 0.84 0.1 0.05 0.4 0.5 0.05 0.8 0.19 0.0 0.01 0.1 0.05 0.4 0.45 0.2 0.3 0.3 0.2
44
0.0 0.95 0.01 0.04 0.2 0.3 0.2 0.3 0.05 0.09 0.59 0.27 0.03 0.32 0.42 0.23 0.07 0.66 0.02 0.25 0.5 0.0 0.0 0.5 0.25 0.3 0.25 0.2 0.2 0.14 0.43 0.23 0.2 0.41 0.1 0.29 0.96 0.0 0.0 0.04 0.03 0.08 0.33 0.56
22
0.8 0.2 0.35 0.65 0.75 0.25 0.7 0.3 0.65 0.35 0.15 0.85 0.7 0.3 0.3 0.7 0.5 0.5 0.01 0.99 0.7 0.3
66
0.05 0.6 0.02 0.1 0.23 0.0 0.08 0.6 0.02 0.1 0.2 0.0 0.1 0.0 0.75 0.0 0.0 0.15 0.1 0.15 0.2 0.05 0.3 0.2 0.43 0.1 0.15 0.06 0.06 0.2 0.6 0.07 0.01 0.12 0.2 0.0 0.25 0.01 0.3 0.01 0.03 0.4 0.04 0.02 0.04 0.8 0.1 0.0 0.2 0.3 0.05 0.37 0.07 0.01 0.6 0.08 0.07 0.03 0.2 0.02 0.1 0.05 0.1 0.05 0.2 0.5